50 65 81 48 70 
75 39 23 73 21 4 
34 3 71 10 63 60 
20 62 88 49 82 12 
27 30 56 74 93 
89 47 11 55 25 54 
92 29 79 66 80 
32 99 6 85 86 61 5 
1 33 72 22 68 51 28 
18 16 59 41 17 52 
95 42 78 90 19 7 
97 76 53 37 100 
24 26 9 13 31 
94 69 8 2 58 
15 84 77 
83 96 14 87 98 91 43 57 
36 64 35 
67 46 
45 44 38 
40 

